%chk=C:\Users\amyjo\Documents\Thesis1_copy\Conclusion_pics\glucoseA_a.chk
# hf/3-21g geom=connectivity

Title Card Required

0 1
 C                 -2.46563564    1.05526241    0.59768053
 C                 -0.95052964    1.05526241    0.59768053
 C                 -0.39859864    2.46634041    0.59768053
 C                 -0.94826164    3.27087741    1.75834153
 C                 -3.01618664    1.86091741    1.75655653
 H                 -0.57798064    0.50962841    1.50424253
 H                 -2.83832364    1.48829141   -0.36770447
 H                 -0.57572664    2.83603241    2.72295253
 H                 -2.75018264    1.35519541    2.72187153
 H                 -0.66721664    2.97197341   -0.36686547
 O                 -2.46338664    3.27153841    1.75785253
 O                 -0.47178539    0.35383410   -0.55284207
 H                  0.04610319   -0.40459958   -0.27325349
 O                  1.02850255    2.42297492    0.67769064
 H                  1.39970341    3.15626214    0.18160619
 C                 -0.43165023    4.71913777    1.67316769
 H                  0.58901656    4.75309477    1.99252050
 H                 -0.50079266    5.06362298    0.66249995
 O                 -1.22360324    5.55818185    2.51798451
 H                 -1.25846788    6.44351857    2.14843975
 O                 -4.44308439    1.90564367    1.67371710
 H                 -4.71118435    1.89103731    0.75202894
 O                 -2.94479440   -0.28963315    0.67869167
 H                 -2.59531861   -0.79913610   -0.05606912

 1 2 1.0 5 1.0 7 1.0 23 1.0
 2 3 1.0 6 1.0 12 1.0
 3 4 1.0 10 1.0 14 1.0
 4 8 1.0 11 1.0 16 1.0
 5 9 1.0 11 1.0 21 1.0
 6
 7
 8
 9
 10
 11
 12 13 1.0
 13
 14 15 1.0
 15
 16 17 1.0 18 1.0 19 1.0
 17
 18
 19 20 1.0
 20
 21 22 1.0
 22
 23 24 1.0
 24

