%chk=C:\Users\amyjo\Documents\Thesis1_copy\Intro_pics\2,3,6-trinitro-beta-glucopyranose.chk
# hf/3-21g geom=connectivity

Title Card Required

0 1
 C                 -1.26155665   -1.14202308   -0.37786741
 C                  0.20908017   -1.37784953   -0.73101282
 C                  0.65773938   -0.25394892   -1.66832617
 C                  0.45124726    1.09505602   -0.95406589
 C                 -1.39312052    0.24168457    0.28609371
 H                  1.69102583   -0.38032018   -1.91581237
 H                  0.32370678   -2.32615954   -1.21316306
 H                 -1.59810049   -1.90231276    0.29562933
 H                  0.75888600    1.88845662   -1.60273677
 H                 -2.41893064    0.41806232    0.53409472
 O                 -0.93847501    1.26437978   -0.61922111
 O                  1.23384035    1.12503345    0.24240785
 H                  1.10809129    1.96705278    0.68601873
 O                 -2.05394071   -1.17854763   -1.56769658
 H                 -2.97461107   -1.02401293   -1.34389958
 O                  0.99986710   -1.35589650    0.46023615
 O                 -0.12344087   -0.28535631   -2.86568619
 C                 -0.53978457    0.27870565    1.56751761
 H                 -0.87827837   -0.47855479    2.24344554
 H                  0.48567809    0.10191142    1.31837883
 O                 -0.66549976    1.56139843    2.18702945
 N                  0.08809563    1.59409238    3.31867652
 O                  1.26763053    1.96502530    3.26614130
 O                 -0.40566746    1.25291096    4.40101057
 N                  0.27211652    0.72017482   -3.69154422
 O                  1.17102975    0.52372949   -4.51920236
 O                 -0.26683950    1.83165348   -3.61541690
 N                  0.58686969   -2.34541980    1.29682253
 O                 -0.30081377   -2.12136320    2.12957128
 O                  1.09872550   -3.46994261    1.22536738

 1 2 1.0 5 1.0 8 1.0 14 1.0
 2 3 1.0 7 1.0 16 1.0
 3 4 1.0 6 1.0 17 1.0
 4 9 1.0 11 1.0 12 1.0
 5 10 1.0 11 1.0 18 1.0
 6
 7
 8
 9
 10
 11
 12 13 1.0
 13
 14 15 1.0
 15
 16 28 1.0
 17 25 1.0
 18 19 1.0 20 1.0 21 1.0
 19
 20
 21 22 1.0
 22 23 1.5 24 1.5
 23
 24
 25 26 1.5 27 1.5
 26
 27
 28 29 1.5 30 1.5
 29
 30

